; DUP3 SWAP1 SLOAD SWAP1 => SLOAD DUP3
(set-option :produce-proofs true)
; 
(set-info :status unknown)
(declare-fun storage_t ((_ BitVec 256) (_ BitVec 256) (_ BitVec 256) (_ BitVec 256) Int (_ BitVec 256)) (_ BitVec 256))
(declare-fun storage_s ((_ BitVec 256) (_ BitVec 256) (_ BitVec 256) (_ BitVec 256) Int (_ BitVec 256)) (_ BitVec 256))
(declare-fun exc_halt_t (Int) Bool)
(declare-fun exc_halt_s (Int) Bool)
(declare-fun sc_t (Int) (_ BitVec 6))
(declare-fun stack_t ((_ BitVec 256) (_ BitVec 256) (_ BitVec 256) (_ BitVec 256) Int (_ BitVec 6)) (_ BitVec 256))
(declare-fun stack_s ((_ BitVec 256) (_ BitVec 256) (_ BitVec 256) (_ BitVec 256) Int (_ BitVec 6)) (_ BitVec 256))
(declare-fun sc_s (Int) (_ BitVec 6))
(declare-fun used_gas_t ((_ BitVec 256) (_ BitVec 256) (_ BitVec 256) (_ BitVec 256) Int) Int)
(declare-fun used_gas_s ((_ BitVec 256) (_ BitVec 256) (_ BitVec 256) (_ BitVec 256) Int) Int)
(assert
 (exists ((x_0 (_ BitVec 256)) (x_1 (_ BitVec 256)) (x_2 (_ BitVec 256)) (x_SLOAD_0 (_ BitVec 256)) )(let (($x3103 (forall ((w (_ BitVec 256)) )(let ((?x406 (storage_t x_0 x_1 x_2 x_SLOAD_0 2 w)))
 (let ((?x1256 (storage_s x_0 x_1 x_2 x_SLOAD_0 4 w)))
 (= ?x1256 ?x406))))
 ))
 (let (($x9347 (exc_halt_t 2)))
 (let (($x9304 (exc_halt_s 4)))
 (let (($x6603 (= $x9304 $x9347)))
 (let (($x8661 (forall ((n (_ BitVec 6)) )(let ((?x5014 (sc_t 2)))
 (let (($x9306 (bvsle ?x5014 n)))
 (let ((?x11601 (stack_t x_0 x_1 x_2 x_SLOAD_0 2 n)))
 (let ((?x8757 (stack_s x_0 x_1 x_2 x_SLOAD_0 4 n)))
 (let (($x5257 (= ?x8757 ?x11601)))
 (or $x5257 $x9306)))))))
 ))
 (let ((?x5014 (sc_t 2)))
 (let ((?x785 (sc_s 4)))
 (let (($x10179 (= ?x785 ?x5014)))
 (let ((?x11131 (used_gas_t x_0 x_1 x_2 x_SLOAD_0 0)))
 (let ((?x1028 (used_gas_s x_0 x_1 x_2 x_SLOAD_0 0)))
 (let (($x5187 (= ?x1028 ?x11131)))
 (let (($x1755 (forall ((w (_ BitVec 256)) )(let ((?x5657 (storage_t x_0 x_1 x_2 x_SLOAD_0 0 w)))
 (let ((?x408 (storage_s x_0 x_1 x_2 x_SLOAD_0 0 w)))
 (= ?x408 ?x5657))))
 ))
 (let (($x56 (exc_halt_t 0)))
 (let (($x57 (exc_halt_s 0)))
 (let (($x58 (= $x57 $x56)))
 (let (($x4547 (forall ((n (_ BitVec 6)) )(let ((?x7577 (stack_t x_0 x_1 x_2 x_SLOAD_0 0 n)))
 (let ((?x2122 (stack_s x_0 x_1 x_2 x_SLOAD_0 0 n)))
 (let (($x9512 (= ?x2122 ?x7577)))
 (let ((?x63 (sc_t 0)))
 (let (($x8253 (bvsle ?x63 n)))
 (or $x8253 $x9512)))))))
 ))
 (let ((?x63 (sc_t 0)))
 (let ((?x72 (sc_s 0)))
 (let (($x73 (= ?x72 ?x63)))
 (let (($x8506 (not (= ((_ extract 6 6) (bvadd (_ bv1 7) (concat (_ bv0 1) (sc_t 1)))) (_ bv0 1)))))
 (let (($x7119 (exc_halt_t 1)))
 (let (($x5575 (= $x9347 (or (not (bvsle (_ bv0 6) (bvadd (_ bv61 6) (sc_t 1)))) $x7119 $x8506))))
 (let (($x8439 (forall ((w (_ BitVec 256)) )(let ((?x842 (storage_t x_0 x_1 x_2 x_SLOAD_0 1 w)))
 (let ((?x406 (storage_t x_0 x_1 x_2 x_SLOAD_0 2 w)))
 (= ?x406 ?x842))))
 ))
 (let (($x5832 (forall ((n (_ BitVec 6)) )(let ((?x3928 (stack_t x_0 x_1 x_2 x_SLOAD_0 1 n)))
 (let ((?x11601 (stack_t x_0 x_1 x_2 x_SLOAD_0 2 n)))
 (let (($x8329 (= ?x11601 ?x3928)))
 (let ((?x11158 (sc_t 1)))
 (let ((?x813 (bvadd (_ bv61 6) ?x11158)))
 (let (($x2457 (bvsle ?x813 n)))
 (or $x2457 $x8329))))))))
 ))
 (let (($x7578 (= ?x5014 (bvadd (_ bv1 6) (sc_t 1)))))
 (let ((?x4233 (used_gas_t x_0 x_1 x_2 x_SLOAD_0 2)))
 (let ((?x11158 (sc_t 1)))
 (let ((?x6823 (bvadd (_ bv63 6) ?x11158)))
 (let ((?x10366 (stack_t x_0 x_1 x_2 x_SLOAD_0 1 ?x6823)))
 (let ((?x4378 (bvadd (_ bv62 6) ?x11158)))
 (let ((?x10614 (stack_t x_0 x_1 x_2 x_SLOAD_0 1 ?x4378)))
 (let ((?x813 (bvadd (_ bv61 6) ?x11158)))
 (let ((?x5883 (stack_t x_0 x_1 x_2 x_SLOAD_0 1 ?x813)))
 (let (($x4066 (forall ((w (_ BitVec 256)) )(let ((?x5657 (storage_t x_0 x_1 x_2 x_SLOAD_0 0 w)))
 (let ((?x842 (storage_t x_0 x_1 x_2 x_SLOAD_0 1 w)))
 (= ?x842 ?x5657))))
 ))
 (let (($x9647 (forall ((n (_ BitVec 6)) )(let ((?x7577 (stack_t x_0 x_1 x_2 x_SLOAD_0 0 n)))
 (let ((?x3928 (stack_t x_0 x_1 x_2 x_SLOAD_0 1 n)))
 (let (($x10596 (= ?x3928 ?x7577)))
 (let ((?x63 (sc_t 0)))
 (let ((?x2643 (bvadd (_ bv63 6) ?x63)))
 (let (($x4994 (bvsle ?x2643 n)))
 (or $x4994 $x10596))))))))
 ))
 (let (($x6052 (= ?x11158 ?x63)))
 (let ((?x2643 (bvadd (_ bv63 6) ?x63)))
 (let ((?x9596 (stack_t x_0 x_1 x_2 x_SLOAD_0 0 ?x2643)))
 (let (($x3334 (= $x9304 (or (exc_halt_s 3) (not (bvsle (_ bv0 6) (bvadd (_ bv62 6) (sc_s 3))))))))
 (let (($x7709 (forall ((w (_ BitVec 256)) )(let ((?x8890 (storage_s x_0 x_1 x_2 x_SLOAD_0 3 w)))
 (let ((?x1256 (storage_s x_0 x_1 x_2 x_SLOAD_0 4 w)))
 (= ?x1256 ?x8890))))
 ))
 (let (($x4361 (forall ((n (_ BitVec 6)) )(let ((?x2368 (stack_s x_0 x_1 x_2 x_SLOAD_0 3 n)))
 (let ((?x8757 (stack_s x_0 x_1 x_2 x_SLOAD_0 4 n)))
 (let ((?x2683 (sc_s 3)))
 (let ((?x11729 (bvadd (_ bv62 6) ?x2683)))
 (let (($x4816 (bvsle ?x11729 n)))
 (or $x4816 (= ?x8757 ?x2368))))))))
 ))
 (let ((?x2683 (sc_s 3)))
 (let (($x8876 (= ?x785 ?x2683)))
 (let ((?x379 (used_gas_s x_0 x_1 x_2 x_SLOAD_0 4)))
 (let (($x626 (= ?x379 (+ 3 (used_gas_s x_0 x_1 x_2 x_SLOAD_0 3)))))
 (let ((?x11671 (bvadd (_ bv63 6) ?x2683)))
 (let ((?x11797 (stack_s x_0 x_1 x_2 x_SLOAD_0 3 ?x11671)))
 (let (($x934 (= (stack_s x_0 x_1 x_2 x_SLOAD_0 4 (bvadd (_ bv62 6) ?x785)) ?x11797)))
 (let (($x6573 (= (stack_s x_0 x_1 x_2 x_SLOAD_0 4 (bvadd (_ bv63 6) ?x785)) (stack_s x_0 x_1 x_2 x_SLOAD_0 3 (bvadd (_ bv62 6) ?x2683)))))
 (let (($x2622 (exc_halt_s 3)))
 (let (($x6753 (= $x2622 (or (exc_halt_s 2) (not (bvsle (_ bv0 6) (bvadd (_ bv63 6) (sc_s 2))))))))
 (let (($x717 (forall ((w (_ BitVec 256)) )(let ((?x681 (storage_s x_0 x_1 x_2 x_SLOAD_0 2 w)))
 (let ((?x8890 (storage_s x_0 x_1 x_2 x_SLOAD_0 3 w)))
 (= ?x8890 ?x681))))
 ))
 (let (($x6913 (forall ((n (_ BitVec 6)) )(let ((?x6598 (stack_s x_0 x_1 x_2 x_SLOAD_0 2 n)))
 (let ((?x2368 (stack_s x_0 x_1 x_2 x_SLOAD_0 3 n)))
 (let ((?x4659 (sc_s 2)))
 (let ((?x8785 (bvadd (_ bv63 6) ?x4659)))
 (let (($x3389 (bvsle ?x8785 n)))
 (or $x3389 (= ?x2368 ?x6598))))))))
 ))
 (let ((?x4659 (sc_s 2)))
 (let (($x1751 (= ?x2683 ?x4659)))
 (let ((?x4042 (used_gas_s x_0 x_1 x_2 x_SLOAD_0 3)))
 (let ((?x8785 (bvadd (_ bv63 6) ?x4659)))
 (let ((?x3839 (stack_s x_0 x_1 x_2 x_SLOAD_0 2 ?x8785)))
 (let (($x989 (exc_halt_s 2)))
 (let (($x1675 (= $x989 (or (exc_halt_s 1) (not (bvsle (_ bv0 6) (bvadd (_ bv62 6) (sc_s 1))))))))
 (let (($x9580 (forall ((w (_ BitVec 256)) )(let ((?x9286 (storage_s x_0 x_1 x_2 x_SLOAD_0 1 w)))
 (let ((?x681 (storage_s x_0 x_1 x_2 x_SLOAD_0 2 w)))
 (= ?x681 ?x9286))))
 ))
 (let (($x5319 (forall ((n (_ BitVec 6)) )(let ((?x154 (sc_s 1)))
 (let ((?x7488 (bvadd (_ bv62 6) ?x154)))
 (let (($x10759 (bvsle ?x7488 n)))
 (let ((?x11796 (stack_s x_0 x_1 x_2 x_SLOAD_0 1 n)))
 (let ((?x6598 (stack_s x_0 x_1 x_2 x_SLOAD_0 2 n)))
 (let (($x2009 (= ?x6598 ?x11796)))
 (or $x2009 $x10759))))))))
 ))
 (let ((?x154 (sc_s 1)))
 (let (($x6104 (= ?x4659 ?x154)))
 (let ((?x3526 (used_gas_s x_0 x_1 x_2 x_SLOAD_0 2)))
 (let (($x7264 (= ?x3526 (+ 3 (used_gas_s x_0 x_1 x_2 x_SLOAD_0 1)))))
 (let ((?x10606 (bvadd (_ bv63 6) ?x154)))
 (let ((?x6732 (stack_s x_0 x_1 x_2 x_SLOAD_0 1 ?x10606)))
 (let ((?x1411 (bvadd (_ bv62 6) ?x4659)))
 (let ((?x6873 (stack_s x_0 x_1 x_2 x_SLOAD_0 2 ?x1411)))
 (let (($x6499 (not (= ((_ extract 6 6) (bvadd (_ bv1 7) (concat (_ bv0 1) ?x72))) (_ bv0 1)))))
 (let (($x7061 (exc_halt_s 1)))
 (let (($x2490 (= $x7061 (or $x57 (not (bvsle (_ bv0 6) (bvadd (_ bv61 6) ?x72))) $x6499))))
 (let (($x3072 (forall ((w (_ BitVec 256)) )(let ((?x408 (storage_s x_0 x_1 x_2 x_SLOAD_0 0 w)))
 (let ((?x9286 (storage_s x_0 x_1 x_2 x_SLOAD_0 1 w)))
 (= ?x9286 ?x408))))
 ))
 (let (($x2992 (forall ((n (_ BitVec 6)) )(let ((?x72 (sc_s 0)))
 (let ((?x10714 (bvadd (_ bv61 6) ?x72)))
 (let (($x10703 (bvsle ?x10714 n)))
 (let ((?x2122 (stack_s x_0 x_1 x_2 x_SLOAD_0 0 n)))
 (let ((?x11796 (stack_s x_0 x_1 x_2 x_SLOAD_0 1 n)))
 (let (($x503 (= ?x11796 ?x2122)))
 (or $x503 $x10703))))))))
 ))
 (let (($x2739 (= ?x154 (bvadd (_ bv1 6) ?x72))))
 (let ((?x6135 (used_gas_s x_0 x_1 x_2 x_SLOAD_0 1)))
 (let (($x8277 (= ?x6135 (+ 3 ?x1028))))
 (let ((?x3145 (bvadd (_ bv63 6) ?x72)))
 (let ((?x8121 (stack_s x_0 x_1 x_2 x_SLOAD_0 0 ?x3145)))
 (let ((?x1178 (bvadd (_ bv62 6) ?x72)))
 (let ((?x5533 (stack_s x_0 x_1 x_2 x_SLOAD_0 0 ?x1178)))
 (let ((?x10714 (bvadd (_ bv61 6) ?x72)))
 (let ((?x2212 (stack_s x_0 x_1 x_2 x_SLOAD_0 0 ?x10714)))
 (let (($x9542 (forall ((w (_ BitVec 256)) )(let (($x2837 (= w (stack_s x_0 x_1 x_2 x_SLOAD_0 2 (bvadd (_ bv63 6) (sc_s 2))))))
 (let ((?x408 (storage_s x_0 x_1 x_2 x_SLOAD_0 0 w)))
 (= ?x408 (ite $x2837 x_SLOAD_0 (_ bv0 256))))))
 ))
 (let (($x3846 (= ?x1028 0)))
 (let (($x11062 (not $x57)))
 (let (($x10184 (= (stack_s x_0 x_1 x_2 x_SLOAD_0 0 (_ bv2 6)) x_2)))
 (let (($x7242 (= (stack_s x_0 x_1 x_2 x_SLOAD_0 0 (_ bv1 6)) x_1)))
 (let (($x10631 (= (stack_s x_0 x_1 x_2 x_SLOAD_0 0 (_ bv0 6)) x_0)))
 (let (($x4812 (= ?x72 (_ bv3 6))))
 (and $x4812 $x10631 $x7242 $x10184 $x11062 $x3846 $x9542 (= ?x6732 ?x2212) (= (stack_s x_0 x_1 x_2 x_SLOAD_0 1 ?x10714) ?x2212) (= (stack_s x_0 x_1 x_2 x_SLOAD_0 1 ?x1178) ?x5533) (= (stack_s x_0 x_1 x_2 x_SLOAD_0 1 ?x3145) ?x8121) $x8277 $x2739 $x2992 $x3072 $x2490 (= ?x3839 (stack_s x_0 x_1 x_2 x_SLOAD_0 1 (bvadd (_ bv62 6) ?x154))) (= ?x6873 ?x6732) $x7264 $x6104 $x5319 $x9580 $x1675 (= ?x11797 (storage_s x_0 x_1 x_2 x_SLOAD_0 2 ?x3839)) (= ?x4042 (+ 200 ?x3526)) $x1751 $x6913 $x717 $x6753 $x6573 $x934 $x626 $x8876 $x4361 $x7709 $x3334 (= ?x10366 (storage_t x_0 x_1 x_2 x_SLOAD_0 0 ?x9596)) (= (used_gas_t x_0 x_1 x_2 x_SLOAD_0 1) (+ 200 ?x11131)) $x6052 $x9647 $x4066 (= $x7119 (or $x56 (not (bvsle (_ bv0 6) ?x2643)))) (= (stack_t x_0 x_1 x_2 x_SLOAD_0 2 (bvadd (_ bv63 6) ?x5014)) ?x5883) (= (stack_t x_0 x_1 x_2 x_SLOAD_0 2 ?x813) ?x5883) (= (stack_t x_0 x_1 x_2 x_SLOAD_0 2 ?x4378) ?x10614) (= (stack_t x_0 x_1 x_2 x_SLOAD_0 2 ?x6823) ?x10366) (= ?x4233 (+ 3 (used_gas_t x_0 x_1 x_2 x_SLOAD_0 1))) $x7578 $x5832 $x8439 $x5575 $x73 $x4547 $x58 $x1755 $x5187 (not (and $x10179 $x8661 $x6603 $x3103)))))))))))))))))))))))))))))))))))))))))))))))))))))))))))))))))))))))))))))))))))))))))))))))
 )
(check-sat)
(get-proof)
